
Gurobi 8.1.0 (linux64, Python) logging started Sat 20 Jul 2019 06:57:29 AM PDT

Academic license - for non-commercial use only

Gurobi 8.1.0 (linux64, Python) logging started Thu 15 Aug 2019 09:57:42 AM PDT

Academic license - for non-commercial use only

Gurobi 8.1.0 (linux64, Python) logging started Thu 15 Aug 2019 10:09:02 AM PDT

Academic license - for non-commercial use only

Gurobi 8.1.0 (linux64, Python) logging started Thu 15 Aug 2019 10:10:55 AM PDT

Academic license - for non-commercial use only

Gurobi 8.1.0 (linux64, Python) logging started Thu 15 Aug 2019 10:22:21 AM PDT

Academic license - for non-commercial use only

Gurobi 8.1.0 (linux64, Python) logging started Thu 15 Aug 2019 10:25:17 AM PDT

Academic license - for non-commercial use only

Gurobi 8.1.0 (linux64, Python) logging started Thu 15 Aug 2019 10:37:32 AM PDT

Academic license - for non-commercial use only

Gurobi 8.1.0 (linux64, Python) logging started Thu 15 Aug 2019 11:06:14 AM PDT

Academic license - for non-commercial use only

Gurobi 8.1.0 (linux64, Python) logging started Thu 15 Aug 2019 11:10:45 AM PDT

Academic license - for non-commercial use only

Gurobi 8.1.0 (linux64, Python) logging started Thu 15 Aug 2019 11:12:19 AM PDT

Academic license - for non-commercial use only

Gurobi 8.1.0 (linux64, Python) logging started Thu 15 Aug 2019 11:38:20 AM PDT

Academic license - for non-commercial use only

Gurobi 8.1.0 (linux64, Python) logging started Thu 15 Aug 2019 12:04:07 PM PDT

Academic license - for non-commercial use only

Gurobi 8.1.0 (linux64, Python) logging started Thu 15 Aug 2019 12:06:09 PM PDT

Academic license - for non-commercial use only

Gurobi 8.1.0 (linux64, Python) logging started Thu 15 Aug 2019 12:22:17 PM PDT

Academic license - for non-commercial use only

Gurobi 8.1.0 (linux64, Python) logging started Thu 15 Aug 2019 12:26:49 PM PDT

Academic license - for non-commercial use only

Gurobi 8.1.0 (linux64, Python) logging started Thu 15 Aug 2019 12:28:13 PM PDT

Academic license - for non-commercial use only

Gurobi 8.1.0 (linux64, Python) logging started Thu 15 Aug 2019 01:24:26 PM PDT

Academic license - for non-commercial use only

Gurobi 8.1.0 (linux64, Python) logging started Thu 15 Aug 2019 01:30:31 PM PDT

Academic license - for non-commercial use only

Gurobi 8.1.0 (linux64, Python) logging started Sun 18 Aug 2019 05:49:24 AM PDT

Academic license - for non-commercial use only

Gurobi 8.1.0 (linux64, Python) logging started Sun 18 Aug 2019 06:01:45 AM PDT

Academic license - for non-commercial use only

Gurobi 8.1.0 (linux64, Python) logging started Sun 18 Aug 2019 06:03:09 AM PDT

Academic license - for non-commercial use only

Gurobi 8.1.0 (linux64, Python) logging started Sun 18 Aug 2019 06:03:47 AM PDT

Academic license - for non-commercial use only

Gurobi 8.1.0 (linux64, Python) logging started Sun 18 Aug 2019 06:05:10 AM PDT

Academic license - for non-commercial use only

Gurobi 8.1.0 (linux64, Python) logging started Sun 18 Aug 2019 06:05:51 AM PDT

Academic license - for non-commercial use only

Gurobi 8.1.0 (linux64, Python) logging started Sun 18 Aug 2019 06:07:50 AM PDT

Academic license - for non-commercial use only

Gurobi 8.1.0 (linux64, Python) logging started Sun 18 Aug 2019 06:11:10 AM PDT

Academic license - for non-commercial use only

Gurobi 8.1.0 (linux64, Python) logging started Sun 18 Aug 2019 06:14:48 AM PDT

Academic license - for non-commercial use only

Gurobi 8.1.0 (linux64, Python) logging started Sun 18 Aug 2019 06:17:16 AM PDT

Academic license - for non-commercial use only

Gurobi 8.1.0 (linux64, Python) logging started Sun 18 Aug 2019 06:18:30 AM PDT

Academic license - for non-commercial use only

Gurobi 8.1.0 (linux64, Python) logging started Sun 18 Aug 2019 06:18:55 AM PDT

Academic license - for non-commercial use only

Gurobi 8.1.0 (linux64, Python) logging started Sun 18 Aug 2019 06:20:33 AM PDT

Academic license - for non-commercial use only

Gurobi 8.1.0 (linux64, Python) logging started Sun 18 Aug 2019 06:23:16 AM PDT

Academic license - for non-commercial use only

Gurobi 8.1.0 (linux64, Python) logging started Sun 18 Aug 2019 06:25:56 AM PDT

Academic license - for non-commercial use only

Gurobi 8.1.0 (linux64, Python) logging started Sun 18 Aug 2019 06:26:15 AM PDT

Academic license - for non-commercial use only

Gurobi 8.1.0 (linux64, Python) logging started Sun 18 Aug 2019 05:06:41 PM PDT

Academic license - for non-commercial use only

Gurobi 8.1.0 (linux64, Python) logging started Sun 18 Aug 2019 05:23:20 PM PDT

Academic license - for non-commercial use only

Gurobi 8.1.0 (linux64, Python) logging started Sun 18 Aug 2019 05:28:19 PM PDT

Academic license - for non-commercial use only

Gurobi 8.1.0 (linux64, Python) logging started Sun 18 Aug 2019 05:29:53 PM PDT

Academic license - for non-commercial use only

Gurobi 8.1.0 (linux64, Python) logging started Sun 18 Aug 2019 05:30:33 PM PDT

Academic license - for non-commercial use only

Gurobi 8.1.0 (linux64, Python) logging started Sun 18 Aug 2019 05:31:15 PM PDT

Academic license - for non-commercial use only

Gurobi 8.1.0 (linux64, Python) logging started Sun 18 Aug 2019 05:31:49 PM PDT

Academic license - for non-commercial use only

Gurobi 8.1.0 (linux64, Python) logging started Sun 18 Aug 2019 05:35:09 PM PDT

Academic license - for non-commercial use only

Gurobi 8.1.0 (linux64, Python) logging started Sun 18 Aug 2019 05:35:50 PM PDT

Academic license - for non-commercial use only

Gurobi 8.1.0 (linux64, Python) logging started Sun 18 Aug 2019 05:38:22 PM PDT

Academic license - for non-commercial use only

Gurobi 8.1.0 (linux64, Python) logging started Sun 18 Aug 2019 05:40:30 PM PDT

Academic license - for non-commercial use only

Gurobi 8.1.0 (linux64, Python) logging started Sun 18 Aug 2019 05:40:47 PM PDT

Academic license - for non-commercial use only

Gurobi 8.1.0 (linux64, Python) logging started Sun 18 Aug 2019 05:47:03 PM PDT

Academic license - for non-commercial use only

Gurobi 8.1.0 (linux64, Python) logging started Sun 18 Aug 2019 06:02:56 PM PDT

Academic license - for non-commercial use only

Gurobi 8.1.0 (linux64, Python) logging started Sun 18 Aug 2019 06:18:30 PM PDT

Academic license - for non-commercial use only

Gurobi 8.1.0 (linux64, Python) logging started Sun 18 Aug 2019 06:41:55 PM PDT

Academic license - for non-commercial use only

Gurobi 8.1.0 (linux64, Python) logging started Sun 18 Aug 2019 08:33:09 PM PDT

Academic license - for non-commercial use only
